[ 0. 18. 26. 11. 30. 21. 19. 15. 16. 29. 26. 37. 16. 12. 31.  8. 19. 20.
 13. 15. 22. 28. 12.  6. 27. 14. 18. 17. 29. 13. 22. 25. 28. 27. 19. 10.
 12. 14. 24. 16. 33. 15. 11. 18. 17. 21. 27. 19. 20.  5. 40. 22. 36. 21.
 45. 55. 33. 50. 55. 26. 40. 55. 35. 62. 62. 62. 21. 33.  9. 62. 66. 44.
 26. 11.  7. 17. 41. 55. 35. 52. 43. 31. 22. 26. 50. 55. 54. 60. 47. 30.
 30. 12. 15. 16. 21. 50. 51. 50. 48. 12.  0. 18. 26. 11. 30. 21. 19. 15.
 16. 29. 26. 37. 16. 12. 31.  8. 19. 20. 13. 15. 22. 28. 12.  6. 27. 14.
 18. 17. 29. 13. 22. 25. 28. 27. 19. 10. 12. 14. 24. 16. 33. 15. 11. 18.
 17. 21. 27. 19. 20.  5.]